\ENCODING=ISO-8859-1
\Problem name: SUFL_5_5

Minimize
 obj: 30 x1 + 30 x2 + 30 x3 + 30 x4 + 30 x5 + 54.25 x10 + 38.25 x11 + 53.75 x12
      + 23 x13 + 64.25 x14 + 25.25 x15 + 47.75 x16 + 16.25 x17 + 34 x18
      + 29 x19 + 52 x20 + 53.25 x21 + 82.25 x22 + 60.75 x23 + 92 x24
      + 32.25 x25 + 37.75 x26 + 25.5 x27 + 25 x28 + 38.25 x29 + 49.75 x30
      + 16.75 x6 + 46.5 x7 + 8 x8 + 59.25 x9
Subject To
 c_g_1:    x1 + x2 + x3 + x4 + x5 >= 1
 c_e_x32_: x11 + x16 + x21 + x26 + x6  = 1
 c_e_x33_: x12 + x17 + x22 + x27 + x7  = 1
 c_e_x34_: x13 + x18 + x23 + x28 + x8  = 1
 c_e_x35_: x14 + x19 + x24 + x29 + x9  = 1
 c_e_x36_: x10 + x15 + x20 + x25 + x30  = 1
 c_u_x37_: - x1 + x6 <= 0
 c_u_x38_: - x1 + x7 <= 0
 c_u_x39_: - x1 + x8 <= 0
 c_u_x40_: - x1 + x9 <= 0
 c_u_x41_: - x1 + x10 <= 0
 c_u_x42_: - x2 + x11 <= 0
 c_u_x43_: - x2 + x12 <= 0
 c_u_x44_: - x2 + x13 <= 0
 c_u_x45_: - x2 + x14 <= 0
 c_u_x46_: - x2 + x15 <= 0
 c_u_x47_: - x3 + x16 <= 0
 c_u_x48_: - x3 + x17 <= 0
 c_u_x49_: - x3 + x18 <= 0
 c_u_x50_: - x3 + x19 <= 0
 c_u_x51_: - x3 + x20 <= 0
 c_u_x52_: - x4 + x21 <= 0
 c_u_x53_: - x4 + x22 <= 0
 c_u_x54_: - x4 + x23 <= 0
 c_u_x55_: - x4 + x24 <= 0
 c_u_x56_: - x4 + x25 <= 0
 c_u_x57_: - x5 + x26 <= 0
 c_u_x58_: - x5 + x27 <= 0
 c_u_x59_: - x5 + x28 <= 0
 c_u_x60_: - x5 + x29 <= 0
 c_u_x61_: - x5 + x30 <= 0
Bounds
 0 <= x1 <= 1
 0 <= x2 <= 1
 0 <= x3 <= 1
 0 <= x4 <= 1
 0 <= x5 <= 1
 0 <= x10 <= 1
 0 <= x11 <= 1
 0 <= x12 <= 1
 0 <= x13 <= 1
 0 <= x14 <= 1
 0 <= x15 <= 1
 0 <= x16 <= 1
 0 <= x17 <= 1
 0 <= x18 <= 1
 0 <= x19 <= 1
 0 <= x20 <= 1
 0 <= x21 <= 1
 0 <= x22 <= 1
 0 <= x23 <= 1
 0 <= x24 <= 1
 0 <= x25 <= 1
 0 <= x26 <= 1
 0 <= x27 <= 1
 0 <= x28 <= 1
 0 <= x29 <= 1
 0 <= x30 <= 1
 0 <= x6 <= 1
 0 <= x7 <= 1
 0 <= x8 <= 1
 0 <= x9 <= 1
Binaries
 x1  x2  x3  x4  x5  x10  x11  x12  x13  x14  x15  x16  x17  x18  x19  x20 
 x21  x22  x23  x24  x25  x26  x27  x28  x29  x30  x6  x7  x8  x9 
End
